p wcnf 1372 1369 10
10 -10 1 
10 -12 1 
10 -14 1 
10 -16 1 
10 -18 1 
10 -20 1 
10 -22 1 
10 -24 1 
10 -26 1 
10 -28 1 
10 -31 1 
10 -34 1 
10 -37 1 
10 -40 1 
10 -43 1 
10 -46 1 
10 -49 1 
10 -52 1 
10 -55 1 
10 -59 1 
10 -63 1 
10 -67 1 
10 -71 1 
10 -75 1 
10 -79 1 
10 -83 1 
10 -87 1 
10 -91 1 
10 -96 1 
10 -101 1 
10 -106 1 
10 -111 1 
10 -116 1 
10 -121 1 
10 -126 1 
10 -131 1 
10 -136 1 
10 -142 1 
10 -148 1 
10 -154 1 
10 -160 1 
10 -166 1 
10 -172 1 
10 -178 1 
10 -184 1 
10 -190 1 
10 -197 1 
10 -204 1 
10 -211 1 
10 -218 1 
10 -225 1 
10 -232 1 
10 -239 1 
10 -246 1 
10 -253 1 
10 -261 1 
10 -269 1 
10 -277 1 
10 -285 1 
10 -293 1 
10 -301 1 
10 -309 1 
10 -317 1 
10 -325 1 
10 -334 1 
10 -343 1 
10 -352 1 
10 -361 1 
10 -370 1 
10 -379 1 
10 -388 1 
10 -397 1 
10 -406 10 
10 -408 10 
10 -410 10 
10 -412 10 
10 -414 10 
10 -416 10 
10 -418 10 
10 -420 10 
10 -422 10 
10 -425 10 
10 -428 10 
10 -431 10 
10 -434 10 
10 -437 10 
10 -440 10 
10 -443 10 
10 -446 10 
10 -450 10 
10 -454 10 
10 -458 10 
10 -462 10 
10 -466 10 
10 -470 10 
10 -474 10 
10 -478 10 
10 -483 10 
10 -488 10 
10 -493 10 
10 -498 10 
10 -503 10 
10 -508 10 
10 -513 10 
10 -518 10 
10 -524 10 
10 -530 10 
10 -536 10 
10 -542 10 
10 -548 10 
10 -554 10 
10 -560 10 
10 -566 10 
10 -573 10 
10 -580 10 
10 -587 10 
10 -594 10 
10 -601 10 
10 -608 10 
10 -615 10 
10 -622 10 
10 -630 10 
10 -638 10 
10 -646 10 
10 -654 10 
10 -662 10 
10 -670 10 
10 -678 10 
10 -686 28 406 
10 -688 28 406 
10 -690 28 406 
10 -692 28 406 
10 -694 28 406 
10 -696 28 406 
10 -698 28 406 
10 -700 28 406 
10 -703 28 406 
10 -706 28 406 
10 -709 28 406 
10 -712 28 406 
10 -715 28 406 
10 -718 28 406 
10 -721 28 406 
10 -725 28 406 
10 -729 28 406 
10 -733 28 406 
10 -737 28 406 
10 -741 28 406 
10 -745 28 406 
10 -749 28 406 
10 -754 28 406 
10 -759 28 406 
10 -764 28 406 
10 -769 28 406 
10 -774 28 406 
10 -779 28 406 
10 -784 28 406 
10 -790 28 406 
10 -796 28 406 
10 -802 28 406 
10 -808 28 406 
10 -814 28 406 
10 -820 28 406 
10 -826 28 406 
10 -833 28 406 
10 -840 28 406 
10 -847 28 406 
10 -854 28 406 
10 -861 28 406 
10 -868 28 406 
10 -875 55 422 686 
10 -877 55 422 686 
10 -879 55 422 686 
10 -881 55 422 686 
10 -883 55 422 686 
10 -885 55 422 686 
10 -887 55 422 686 
10 -890 55 422 686 
10 -893 55 422 686 
10 -896 55 422 686 
10 -899 55 422 686 
10 -902 55 422 686 
10 -905 55 422 686 
10 -909 55 422 686 
10 -913 55 422 686 
10 -917 55 422 686 
10 -921 55 422 686 
10 -925 55 422 686 
10 -929 55 422 686 
10 -934 55 422 686 
10 -939 55 422 686 
10 -944 55 422 686 
10 -949 55 422 686 
10 -954 55 422 686 
10 -959 55 422 686 
10 -965 55 422 686 
10 -971 55 422 686 
10 -977 55 422 686 
10 -983 55 422 686 
10 -989 55 422 686 
10 -995 91 446 700 875 
10 -997 91 446 700 875 
10 -999 91 446 700 875 
10 -1001 91 446 700 875 
10 -1003 91 446 700 875 
10 -1005 91 446 700 875 
10 -1008 91 446 700 875 
10 -1011 91 446 700 875 
10 -1014 91 446 700 875 
10 -1017 91 446 700 875 
10 -1020 91 446 700 875 
10 -1024 91 446 700 875 
10 -1028 91 446 700 875 
10 -1032 91 446 700 875 
10 -1036 91 446 700 875 
10 -1040 91 446 700 875 
10 -1045 91 446 700 875 
10 -1050 91 446 700 875 
10 -1055 91 446 700 875 
10 -1060 91 446 700 875 
10 -1065 136 478 721 887 995 
10 -1067 136 478 721 887 995 
10 -1069 136 478 721 887 995 
10 -1071 136 478 721 887 995 
10 -1073 136 478 721 887 995 
10 -1076 136 478 721 887 995 
10 -1079 136 478 721 887 995 
10 -1082 136 478 721 887 995 
10 -1085 136 478 721 887 995 
10 -1089 136 478 721 887 995 
10 -1093 136 478 721 887 995 
10 -1097 136 478 721 887 995 
10 -1101 190 518 749 905 1005 1065 
10 -1103 190 518 749 905 1005 1065 
10 -1105 190 518 749 905 1005 1065 
10 -1107 190 518 749 905 1005 1065 
10 -1110 190 518 749 905 1005 1065 
10 -1113 190 518 749 905 1005 1065 
10 -1116 253 566 784 929 1020 1073 1101 
10 -1118 253 566 784 929 1020 1073 1101 
10 -1120 1 
10 -1122 1 
10 -1124 1 
10 -1126 1 
10 -1128 1 
10 -1130 1 
10 -1132 1 
10 -1134 1 
10 -1136 1 
10 -1138 1 
10 -1141 1 
10 -1144 1 
10 -1147 1 
10 -1150 1 
10 -1153 1 
10 -1156 1 
10 -1159 1 
10 -1162 1 
10 -1165 1 
10 -1169 1 
10 -1173 1 
10 -1177 1 
10 -1181 1 
10 -1185 1 
10 -1189 1 
10 -1193 1 
10 -1197 1 
10 -1201 1 
10 -1206 1 
10 -1211 1 
10 -1216 1 
10 -1221 1 
10 -1226 1 
10 -1231 1 
10 -1236 1 
10 -1241 1 
10 -1246 1120 
10 -1248 1120 
10 -1250 1120 
10 -1252 1120 
10 -1254 1120 
10 -1256 1120 
10 -1258 1120 
10 -1260 1120 
10 -1262 1120 
10 -1265 1120 
10 -1268 1120 
10 -1271 1120 
10 -1274 1120 
10 -1277 1120 
10 -1280 1120 
10 -1283 1120 
10 -1286 1120 
10 -1290 1120 
10 -1294 1120 
10 -1298 1120 
10 -1302 1120 
10 -1306 1120 
10 -1310 1120 
10 -1314 1120 
10 -1318 1138 1246 
10 -1320 1138 1246 
10 -1322 1138 1246 
10 -1324 1138 1246 
10 -1326 1138 1246 
10 -1328 1138 1246 
10 -1330 1138 1246 
10 -1332 1138 1246 
10 -1335 1138 1246 
10 -1338 1138 1246 
10 -1341 1138 1246 
10 -1344 1138 1246 
10 -1347 1138 1246 
10 -1350 1138 1246 
10 -1353 1165 1262 1318 
10 -1355 1165 1262 1318 
10 -1357 1165 1262 1318 
10 -1359 1165 1262 1318 
10 -1361 1165 1262 1318 
10 -1363 1165 1262 1318 
10 -1365 325 334 343 352 361 370 379 388 397 622 630 638 646 654 662 670 678 826 833 840 847 854 861 868 959 965 971 977 983 989 1201 1286 1332 1353 
10 -1366 325 334 343 352 361 370 379 388 397 622 630 638 646 654 662 670 678 826 833 840 847 854 861 868 959 965 971 977 983 989 1201 1286 1332 1353 
10 -1367 325 334 343 352 361 370 379 388 397 622 630 638 646 654 662 670 678 826 833 840 847 854 861 868 959 965 971 977 983 989 1201 1286 1332 1353 
10 -1368 325 334 343 352 361 370 379 388 397 622 630 638 646 654 662 670 678 826 833 840 847 854 861 868 959 965 971 977 983 989 1201 1286 1332 1353 
10 -1369 325 334 343 352 361 370 379 388 397 622 630 638 646 654 662 670 678 826 833 840 847 854 861 868 959 965 971 977 983 989 1201 1286 1332 1353 
10 10 12 14 16 18 20 22 24 26 28 31 34 37 40 43 46 49 52 55 59 63 67 71 75 79 83 87 91 96 101 106 111 116 121 126 131 136 142 148 154 160 166 172 178 184 190 197 204 211 218 225 232 239 246 253 261 269 277 285 293 301 309 317 325 334 343 352 361 370 379 388 397 
10 10 12 14 16 18 20 22 24 26 28 31 34 37 40 43 46 49 52 55 59 63 67 71 75 79 83 87 91 96 101 106 111 116 121 126 131 136 142 148 154 160 166 172 178 184 190 197 204 211 218 225 232 239 246 253 261 269 277 285 293 301 309 317 325 334 343 352 361 370 379 388 397 406 408 410 412 414 416 418 420 422 425 428 431 434 437 440 443 446 450 454 458 462 466 470 474 478 483 488 493 498 503 508 513 518 524 530 536 542 548 554 560 566 573 580 587 594 601 608 615 622 630 638 646 654 662 670 678 
10 28 31 34 37 40 43 46 49 52 55 59 63 67 71 75 79 83 87 91 96 101 106 111 116 121 126 131 136 142 148 154 160 166 172 178 184 190 197 204 211 218 225 232 239 246 253 261 269 277 285 293 301 309 317 325 334 343 352 361 370 379 388 397 406 408 410 412 414 416 418 420 422 425 428 431 434 437 440 443 446 450 454 458 462 466 470 474 478 483 488 493 498 503 508 513 518 524 530 536 542 548 554 560 566 573 580 587 594 601 608 615 622 630 638 646 654 662 670 678 686 688 690 692 694 696 698 700 703 706 709 712 715 718 721 725 729 733 737 741 745 749 754 759 764 769 774 779 784 790 796 802 808 814 820 826 833 840 847 854 861 868 
10 55 59 63 67 71 75 79 83 87 91 96 101 106 111 116 121 126 131 136 142 148 154 160 166 172 178 184 190 197 204 211 218 225 232 239 246 253 261 269 277 285 293 301 309 317 325 334 343 352 361 370 379 388 397 422 425 428 431 434 437 440 443 446 450 454 458 462 466 470 474 478 483 488 493 498 503 508 513 518 524 530 536 542 548 554 560 566 573 580 587 594 601 608 615 622 630 638 646 654 662 670 678 686 688 690 692 694 696 698 700 703 706 709 712 715 718 721 725 729 733 737 741 745 749 754 759 764 769 774 779 784 790 796 802 808 814 820 826 833 840 847 854 861 868 875 877 879 881 883 885 887 890 893 896 899 902 905 909 913 917 921 925 929 934 939 944 949 954 959 965 971 977 983 989 
10 91 96 101 106 111 116 121 126 131 136 142 148 154 160 166 172 178 184 190 197 204 211 218 225 232 239 246 253 261 269 277 285 293 301 309 317 325 334 343 352 361 370 379 388 397 446 450 454 458 462 466 470 474 478 483 488 493 498 503 508 513 518 524 530 536 542 548 554 560 566 573 580 587 594 601 608 615 622 630 638 646 654 662 670 678 700 703 706 709 712 715 718 721 725 729 733 737 741 745 749 754 759 764 769 774 779 784 790 796 802 808 814 820 826 833 840 847 854 861 868 875 877 879 881 883 885 887 890 893 896 899 902 905 909 913 917 921 925 929 934 939 944 949 954 959 965 971 977 983 989 995 997 999 1001 1003 1005 1008 1011 1014 1017 1020 1024 1028 1032 1036 1040 1045 1050 1055 1060 
10 136 142 148 154 160 166 172 178 184 190 197 204 211 218 225 232 239 246 253 261 269 277 285 293 301 309 317 325 334 343 352 361 370 379 388 397 478 483 488 493 498 503 508 513 518 524 530 536 542 548 554 560 566 573 580 587 594 601 608 615 622 630 638 646 654 662 670 678 721 725 729 733 737 741 745 749 754 759 764 769 774 779 784 790 796 802 808 814 820 826 833 840 847 854 861 868 887 890 893 896 899 902 905 909 913 917 921 925 929 934 939 944 949 954 959 965 971 977 983 989 995 997 999 1001 1003 1005 1008 1011 1014 1017 1020 1024 1028 1032 1036 1040 1045 1050 1055 1060 1065 1067 1069 1071 1073 1076 1079 1082 1085 1089 1093 1097 
10 190 197 204 211 218 225 232 239 246 253 261 269 277 285 293 301 309 317 325 334 343 352 361 370 379 388 397 518 524 530 536 542 548 554 560 566 573 580 587 594 601 608 615 622 630 638 646 654 662 670 678 749 754 759 764 769 774 779 784 790 796 802 808 814 820 826 833 840 847 854 861 868 905 909 913 917 921 925 929 934 939 944 949 954 959 965 971 977 983 989 1005 1008 1011 1014 1017 1020 1024 1028 1032 1036 1040 1045 1050 1055 1060 1065 1067 1069 1071 1073 1076 1079 1082 1085 1089 1093 1097 1101 1103 1105 1107 1110 1113 
10 253 261 269 277 285 293 301 309 317 325 334 343 352 361 370 379 388 397 566 573 580 587 594 601 608 615 622 630 638 646 654 662 670 678 784 790 796 802 808 814 820 826 833 840 847 854 861 868 929 934 939 944 949 954 959 965 971 977 983 989 1020 1024 1028 1032 1036 1040 1045 1050 1055 1060 1073 1076 1079 1082 1085 1089 1093 1097 1101 1103 1105 1107 1110 1113 1116 1118 
10 1120 1122 1124 1126 1128 1130 1132 1134 1136 1138 1141 1144 1147 1150 1153 1156 1159 1162 1165 1169 1173 1177 1181 1185 1189 1193 1197 1201 1206 1211 1216 1221 1226 1231 1236 1241 
10 1120 1122 1124 1126 1128 1130 1132 1134 1136 1138 1141 1144 1147 1150 1153 1156 1159 1162 1165 1169 1173 1177 1181 1185 1189 1193 1197 1201 1206 1211 1216 1221 1226 1231 1236 1241 1246 1248 1250 1252 1254 1256 1258 1260 1262 1265 1268 1271 1274 1277 1280 1283 1286 1290 1294 1298 1302 1306 1310 1314 
10 1138 1141 1144 1147 1150 1153 1156 1159 1162 1165 1169 1173 1177 1181 1185 1189 1193 1197 1201 1206 1211 1216 1221 1226 1231 1236 1241 1246 1248 1250 1252 1254 1256 1258 1260 1262 1265 1268 1271 1274 1277 1280 1283 1286 1290 1294 1298 1302 1306 1310 1314 1318 1320 1322 1324 1326 1328 1330 1332 1335 1338 1341 1344 1347 1350 
10 1165 1169 1173 1177 1181 1185 1189 1193 1197 1201 1206 1211 1216 1221 1226 1231 1236 1241 1262 1265 1268 1271 1274 1277 1280 1283 1286 1290 1294 1298 1302 1306 1310 1314 1318 1320 1322 1324 1326 1328 1330 1332 1335 1338 1341 1344 1347 1350 1353 1355 1357 1359 1361 1363 
10 -10 11 
10 -12 13 
10 -14 15 
10 -16 17 
10 -18 19 
10 -20 21 
10 -22 23 
10 -24 25 
10 -26 27 
10 -28 29 
10 -28 30 
10 -31 32 
10 -31 33 
10 -34 35 
10 -34 36 
10 -37 38 
10 -37 39 
10 -40 41 
10 -40 42 
10 -43 44 
10 -43 45 
10 -46 47 
10 -46 48 
10 -49 50 
10 -49 51 
10 -52 53 
10 -52 54 
10 -55 56 
10 -55 57 
10 -55 58 
10 -59 60 
10 -59 61 
10 -59 62 
10 -63 64 
10 -63 65 
10 -63 66 
10 -67 68 
10 -67 69 
10 -67 70 
10 -71 72 
10 -71 73 
10 -71 74 
10 -75 76 
10 -75 77 
10 -75 78 
10 -79 80 
10 -79 81 
10 -79 82 
10 -83 84 
10 -83 85 
10 -83 86 
10 -87 88 
10 -87 89 
10 -87 90 
10 -91 92 
10 -91 93 
10 -91 94 
10 -91 95 
10 -96 97 
10 -96 98 
10 -96 99 
10 -96 100 
10 -101 102 
10 -101 103 
10 -101 104 
10 -101 105 
10 -106 107 
10 -106 108 
10 -106 109 
10 -106 110 
10 -111 112 
10 -111 113 
10 -111 114 
10 -111 115 
10 -116 117 
10 -116 118 
10 -116 119 
10 -116 120 
10 -121 122 
10 -121 123 
10 -121 124 
10 -121 125 
10 -126 127 
10 -126 128 
10 -126 129 
10 -126 130 
10 -131 132 
10 -131 133 
10 -131 134 
10 -131 135 
10 -136 137 
10 -136 138 
10 -136 139 
10 -136 140 
10 -136 141 
10 -142 143 
10 -142 144 
10 -142 145 
10 -142 146 
10 -142 147 
10 -148 149 
10 -148 150 
10 -148 151 
10 -148 152 
10 -148 153 
10 -154 155 
10 -154 156 
10 -154 157 
10 -154 158 
10 -154 159 
10 -160 161 
10 -160 162 
10 -160 163 
10 -160 164 
10 -160 165 
10 -166 167 
10 -166 168 
10 -166 169 
10 -166 170 
10 -166 171 
10 -172 173 
10 -172 174 
10 -172 175 
10 -172 176 
10 -172 177 
10 -178 179 
10 -178 180 
10 -178 181 
10 -178 182 
10 -178 183 
10 -184 185 
10 -184 186 
10 -184 187 
10 -184 188 
10 -184 189 
10 -190 191 
10 -190 192 
10 -190 193 
10 -190 194 
10 -190 195 
10 -190 196 
10 -197 198 
10 -197 199 
10 -197 200 
10 -197 201 
10 -197 202 
10 -197 203 
10 -204 205 
10 -204 206 
10 -204 207 
10 -204 208 
10 -204 209 
10 -204 210 
10 -211 212 
10 -211 213 
10 -211 214 
10 -211 215 
10 -211 216 
10 -211 217 
10 -218 219 
10 -218 220 
10 -218 221 
10 -218 222 
10 -218 223 
10 -218 224 
10 -225 226 
10 -225 227 
10 -225 228 
10 -225 229 
10 -225 230 
10 -225 231 
10 -232 233 
10 -232 234 
10 -232 235 
10 -232 236 
10 -232 237 
10 -232 238 
10 -239 240 
10 -239 241 
10 -239 242 
10 -239 243 
10 -239 244 
10 -239 245 
10 -246 247 
10 -246 248 
10 -246 249 
10 -246 250 
10 -246 251 
10 -246 252 
10 -253 254 
10 -253 255 
10 -253 256 
10 -253 257 
10 -253 258 
10 -253 259 
10 -253 260 
10 -261 262 
10 -261 263 
10 -261 264 
10 -261 265 
10 -261 266 
10 -261 267 
10 -261 268 
10 -269 270 
10 -269 271 
10 -269 272 
10 -269 273 
10 -269 274 
10 -269 275 
10 -269 276 
10 -277 278 
10 -277 279 
10 -277 280 
10 -277 281 
10 -277 282 
10 -277 283 
10 -277 284 
10 -285 286 
10 -285 287 
10 -285 288 
10 -285 289 
10 -285 290 
10 -285 291 
10 -285 292 
10 -293 294 
10 -293 295 
10 -293 296 
10 -293 297 
10 -293 298 
10 -293 299 
10 -293 300 
10 -301 302 
10 -301 303 
10 -301 304 
10 -301 305 
10 -301 306 
10 -301 307 
10 -301 308 
10 -309 310 
10 -309 311 
10 -309 312 
10 -309 313 
10 -309 314 
10 -309 315 
10 -309 316 
10 -317 318 
10 -317 319 
10 -317 320 
10 -317 321 
10 -317 322 
10 -317 323 
10 -317 324 
10 -325 326 
10 -325 327 
10 -325 328 
10 -325 329 
10 -325 330 
10 -325 331 
10 -325 332 
10 -325 333 
10 -334 335 
10 -334 336 
10 -334 337 
10 -334 338 
10 -334 339 
10 -334 340 
10 -334 341 
10 -334 342 
10 -343 344 
10 -343 345 
10 -343 346 
10 -343 347 
10 -343 348 
10 -343 349 
10 -343 350 
10 -343 351 
10 -352 353 
10 -352 354 
10 -352 355 
10 -352 356 
10 -352 357 
10 -352 358 
10 -352 359 
10 -352 360 
10 -361 362 
10 -361 363 
10 -361 364 
10 -361 365 
10 -361 366 
10 -361 367 
10 -361 368 
10 -361 369 
10 -370 371 
10 -370 372 
10 -370 373 
10 -370 374 
10 -370 375 
10 -370 376 
10 -370 377 
10 -370 378 
10 -379 380 
10 -379 381 
10 -379 382 
10 -379 383 
10 -379 384 
10 -379 385 
10 -379 386 
10 -379 387 
10 -388 389 
10 -388 390 
10 -388 391 
10 -388 392 
10 -388 393 
10 -388 394 
10 -388 395 
10 -388 396 
10 -397 398 
10 -397 399 
10 -397 400 
10 -397 401 
10 -397 402 
10 -397 403 
10 -397 404 
10 -397 405 
10 -406 407 
10 -408 409 
10 -410 411 
10 -412 413 
10 -414 415 
10 -416 417 
10 -418 419 
10 -420 421 
10 -422 423 
10 -422 424 
10 -425 426 
10 -425 427 
10 -428 429 
10 -428 430 
10 -431 432 
10 -431 433 
10 -434 435 
10 -434 436 
10 -437 438 
10 -437 439 
10 -440 441 
10 -440 442 
10 -443 444 
10 -443 445 
10 -446 447 
10 -446 448 
10 -446 449 
10 -450 451 
10 -450 452 
10 -450 453 
10 -454 455 
10 -454 456 
10 -454 457 
10 -458 459 
10 -458 460 
10 -458 461 
10 -462 463 
10 -462 464 
10 -462 465 
10 -466 467 
10 -466 468 
10 -466 469 
10 -470 471 
10 -470 472 
10 -470 473 
10 -474 475 
10 -474 476 
10 -474 477 
10 -478 479 
10 -478 480 
10 -478 481 
10 -478 482 
10 -483 484 
10 -483 485 
10 -483 486 
10 -483 487 
10 -488 489 
10 -488 490 
10 -488 491 
10 -488 492 
10 -493 494 
10 -493 495 
10 -493 496 
10 -493 497 
10 -498 499 
10 -498 500 
10 -498 501 
10 -498 502 
10 -503 504 
10 -503 505 
10 -503 506 
10 -503 507 
10 -508 509 
10 -508 510 
10 -508 511 
10 -508 512 
10 -513 514 
10 -513 515 
10 -513 516 
10 -513 517 
10 -518 519 
10 -518 520 
10 -518 521 
10 -518 522 
10 -518 523 
10 -524 525 
10 -524 526 
10 -524 527 
10 -524 528 
10 -524 529 
10 -530 531 
10 -530 532 
10 -530 533 
10 -530 534 
10 -530 535 
10 -536 537 
10 -536 538 
10 -536 539 
10 -536 540 
10 -536 541 
10 -542 543 
10 -542 544 
10 -542 545 
10 -542 546 
10 -542 547 
10 -548 549 
10 -548 550 
10 -548 551 
10 -548 552 
10 -548 553 
10 -554 555 
10 -554 556 
10 -554 557 
10 -554 558 
10 -554 559 
10 -560 561 
10 -560 562 
10 -560 563 
10 -560 564 
10 -560 565 
10 -566 567 
10 -566 568 
10 -566 569 
10 -566 570 
10 -566 571 
10 -566 572 
10 -573 574 
10 -573 575 
10 -573 576 
10 -573 577 
10 -573 578 
10 -573 579 
10 -580 581 
10 -580 582 
10 -580 583 
10 -580 584 
10 -580 585 
10 -580 586 
10 -587 588 
10 -587 589 
10 -587 590 
10 -587 591 
10 -587 592 
10 -587 593 
10 -594 595 
10 -594 596 
10 -594 597 
10 -594 598 
10 -594 599 
10 -594 600 
10 -601 602 
10 -601 603 
10 -601 604 
10 -601 605 
10 -601 606 
10 -601 607 
10 -608 609 
10 -608 610 
10 -608 611 
10 -608 612 
10 -608 613 
10 -608 614 
10 -615 616 
10 -615 617 
10 -615 618 
10 -615 619 
10 -615 620 
10 -615 621 
10 -622 623 
10 -622 624 
10 -622 625 
10 -622 626 
10 -622 627 
10 -622 628 
10 -622 629 
10 -630 631 
10 -630 632 
10 -630 633 
10 -630 634 
10 -630 635 
10 -630 636 
10 -630 637 
10 -638 639 
10 -638 640 
10 -638 641 
10 -638 642 
10 -638 643 
10 -638 644 
10 -638 645 
10 -646 647 
10 -646 648 
10 -646 649 
10 -646 650 
10 -646 651 
10 -646 652 
10 -646 653 
10 -654 655 
10 -654 656 
10 -654 657 
10 -654 658 
10 -654 659 
10 -654 660 
10 -654 661 
10 -662 663 
10 -662 664 
10 -662 665 
10 -662 666 
10 -662 667 
10 -662 668 
10 -662 669 
10 -670 671 
10 -670 672 
10 -670 673 
10 -670 674 
10 -670 675 
10 -670 676 
10 -670 677 
10 -678 679 
10 -678 680 
10 -678 681 
10 -678 682 
10 -678 683 
10 -678 684 
10 -678 685 
10 -686 687 
10 -688 689 
10 -690 691 
10 -692 693 
10 -694 695 
10 -696 697 
10 -698 699 
10 -700 701 
10 -700 702 
10 -703 704 
10 -703 705 
10 -706 707 
10 -706 708 
10 -709 710 
10 -709 711 
10 -712 713 
10 -712 714 
10 -715 716 
10 -715 717 
10 -718 719 
10 -718 720 
10 -721 722 
10 -721 723 
10 -721 724 
10 -725 726 
10 -725 727 
10 -725 728 
10 -729 730 
10 -729 731 
10 -729 732 
10 -733 734 
10 -733 735 
10 -733 736 
10 -737 738 
10 -737 739 
10 -737 740 
10 -741 742 
10 -741 743 
10 -741 744 
10 -745 746 
10 -745 747 
10 -745 748 
10 -749 750 
10 -749 751 
10 -749 752 
10 -749 753 
10 -754 755 
10 -754 756 
10 -754 757 
10 -754 758 
10 -759 760 
10 -759 761 
10 -759 762 
10 -759 763 
10 -764 765 
10 -764 766 
10 -764 767 
10 -764 768 
10 -769 770 
10 -769 771 
10 -769 772 
10 -769 773 
10 -774 775 
10 -774 776 
10 -774 777 
10 -774 778 
10 -779 780 
10 -779 781 
10 -779 782 
10 -779 783 
10 -784 785 
10 -784 786 
10 -784 787 
10 -784 788 
10 -784 789 
10 -790 791 
10 -790 792 
10 -790 793 
10 -790 794 
10 -790 795 
10 -796 797 
10 -796 798 
10 -796 799 
10 -796 800 
10 -796 801 
10 -802 803 
10 -802 804 
10 -802 805 
10 -802 806 
10 -802 807 
10 -808 809 
10 -808 810 
10 -808 811 
10 -808 812 
10 -808 813 
10 -814 815 
10 -814 816 
10 -814 817 
10 -814 818 
10 -814 819 
10 -820 821 
10 -820 822 
10 -820 823 
10 -820 824 
10 -820 825 
10 -826 827 
10 -826 828 
10 -826 829 
10 -826 830 
10 -826 831 
10 -826 832 
10 -833 834 
10 -833 835 
10 -833 836 
10 -833 837 
10 -833 838 
10 -833 839 
10 -840 841 
10 -840 842 
10 -840 843 
10 -840 844 
10 -840 845 
10 -840 846 
10 -847 848 
10 -847 849 
10 -847 850 
10 -847 851 
10 -847 852 
10 -847 853 
10 -854 855 
10 -854 856 
10 -854 857 
10 -854 858 
10 -854 859 
10 -854 860 
10 -861 862 
10 -861 863 
10 -861 864 
10 -861 865 
10 -861 866 
10 -861 867 
10 -868 869 
10 -868 870 
10 -868 871 
10 -868 872 
10 -868 873 
10 -868 874 
10 -875 876 
10 -877 878 
10 -879 880 
10 -881 882 
10 -883 884 
10 -885 886 
10 -887 888 
10 -887 889 
10 -890 891 
10 -890 892 
10 -893 894 
10 -893 895 
10 -896 897 
10 -896 898 
10 -899 900 
10 -899 901 
10 -902 903 
10 -902 904 
10 -905 906 
10 -905 907 
10 -905 908 
10 -909 910 
10 -909 911 
10 -909 912 
10 -913 914 
10 -913 915 
10 -913 916 
10 -917 918 
10 -917 919 
10 -917 920 
10 -921 922 
10 -921 923 
10 -921 924 
10 -925 926 
10 -925 927 
10 -925 928 
10 -929 930 
10 -929 931 
10 -929 932 
10 -929 933 
10 -934 935 
10 -934 936 
10 -934 937 
10 -934 938 
10 -939 940 
10 -939 941 
10 -939 942 
10 -939 943 
10 -944 945 
10 -944 946 
10 -944 947 
10 -944 948 
10 -949 950 
10 -949 951 
10 -949 952 
10 -949 953 
10 -954 955 
10 -954 956 
10 -954 957 
10 -954 958 
10 -959 960 
10 -959 961 
10 -959 962 
10 -959 963 
10 -959 964 
10 -965 966 
10 -965 967 
10 -965 968 
10 -965 969 
10 -965 970 
10 -971 972 
10 -971 973 
10 -971 974 
10 -971 975 
10 -971 976 
10 -977 978 
10 -977 979 
10 -977 980 
10 -977 981 
10 -977 982 
10 -983 984 
10 -983 985 
10 -983 986 
10 -983 987 
10 -983 988 
10 -989 990 
10 -989 991 
10 -989 992 
10 -989 993 
10 -989 994 
10 -995 996 
10 -997 998 
10 -999 1000 
10 -1001 1002 
10 -1003 1004 
10 -1005 1006 
10 -1005 1007 
10 -1008 1009 
10 -1008 1010 
10 -1011 1012 
10 -1011 1013 
10 -1014 1015 
10 -1014 1016 
10 -1017 1018 
10 -1017 1019 
10 -1020 1021 
10 -1020 1022 
10 -1020 1023 
10 -1024 1025 
10 -1024 1026 
10 -1024 1027 
10 -1028 1029 
10 -1028 1030 
10 -1028 1031 
10 -1032 1033 
10 -1032 1034 
10 -1032 1035 
10 -1036 1037 
10 -1036 1038 
10 -1036 1039 
10 -1040 1041 
10 -1040 1042 
10 -1040 1043 
10 -1040 1044 
10 -1045 1046 
10 -1045 1047 
10 -1045 1048 
10 -1045 1049 
10 -1050 1051 
10 -1050 1052 
10 -1050 1053 
10 -1050 1054 
10 -1055 1056 
10 -1055 1057 
10 -1055 1058 
10 -1055 1059 
10 -1060 1061 
10 -1060 1062 
10 -1060 1063 
10 -1060 1064 
10 -1065 1066 
10 -1067 1068 
10 -1069 1070 
10 -1071 1072 
10 -1073 1074 
10 -1073 1075 
10 -1076 1077 
10 -1076 1078 
10 -1079 1080 
10 -1079 1081 
10 -1082 1083 
10 -1082 1084 
10 -1085 1086 
10 -1085 1087 
10 -1085 1088 
10 -1089 1090 
10 -1089 1091 
10 -1089 1092 
10 -1093 1094 
10 -1093 1095 
10 -1093 1096 
10 -1097 1098 
10 -1097 1099 
10 -1097 1100 
10 -1101 1102 
10 -1103 1104 
10 -1105 1106 
10 -1107 1108 
10 -1107 1109 
10 -1110 1111 
10 -1110 1112 
10 -1113 1114 
10 -1113 1115 
10 -1116 1117 
10 -1118 1119 
10 -1120 1121 
10 -1122 1123 
10 -1124 1125 
10 -1126 1127 
10 -1128 1129 
10 -1130 1131 
10 -1132 1133 
10 -1134 1135 
10 -1136 1137 
10 -1138 1139 
10 -1138 1140 
10 -1141 1142 
10 -1141 1143 
10 -1144 1145 
10 -1144 1146 
10 -1147 1148 
10 -1147 1149 
10 -1150 1151 
10 -1150 1152 
10 -1153 1154 
10 -1153 1155 
10 -1156 1157 
10 -1156 1158 
10 -1159 1160 
10 -1159 1161 
10 -1162 1163 
10 -1162 1164 
10 -1165 1166 
10 -1165 1167 
10 -1165 1168 
10 -1169 1170 
10 -1169 1171 
10 -1169 1172 
10 -1173 1174 
10 -1173 1175 
10 -1173 1176 
10 -1177 1178 
10 -1177 1179 
10 -1177 1180 
10 -1181 1182 
10 -1181 1183 
10 -1181 1184 
10 -1185 1186 
10 -1185 1187 
10 -1185 1188 
10 -1189 1190 
10 -1189 1191 
10 -1189 1192 
10 -1193 1194 
10 -1193 1195 
10 -1193 1196 
10 -1197 1198 
10 -1197 1199 
10 -1197 1200 
10 -1201 1202 
10 -1201 1203 
10 -1201 1204 
10 -1201 1205 
10 -1206 1207 
10 -1206 1208 
10 -1206 1209 
10 -1206 1210 
10 -1211 1212 
10 -1211 1213 
10 -1211 1214 
10 -1211 1215 
10 -1216 1217 
10 -1216 1218 
10 -1216 1219 
10 -1216 1220 
10 -1221 1222 
10 -1221 1223 
10 -1221 1224 
10 -1221 1225 
10 -1226 1227 
10 -1226 1228 
10 -1226 1229 
10 -1226 1230 
10 -1231 1232 
10 -1231 1233 
10 -1231 1234 
10 -1231 1235 
10 -1236 1237 
10 -1236 1238 
10 -1236 1239 
10 -1236 1240 
10 -1241 1242 
10 -1241 1243 
10 -1241 1244 
10 -1241 1245 
10 -1246 1247 
10 -1248 1249 
10 -1250 1251 
10 -1252 1253 
10 -1254 1255 
10 -1256 1257 
10 -1258 1259 
10 -1260 1261 
10 -1262 1263 
10 -1262 1264 
10 -1265 1266 
10 -1265 1267 
10 -1268 1269 
10 -1268 1270 
10 -1271 1272 
10 -1271 1273 
10 -1274 1275 
10 -1274 1276 
10 -1277 1278 
10 -1277 1279 
10 -1280 1281 
10 -1280 1282 
10 -1283 1284 
10 -1283 1285 
10 -1286 1287 
10 -1286 1288 
10 -1286 1289 
10 -1290 1291 
10 -1290 1292 
10 -1290 1293 
10 -1294 1295 
10 -1294 1296 
10 -1294 1297 
10 -1298 1299 
10 -1298 1300 
10 -1298 1301 
10 -1302 1303 
10 -1302 1304 
10 -1302 1305 
10 -1306 1307 
10 -1306 1308 
10 -1306 1309 
10 -1310 1311 
10 -1310 1312 
10 -1310 1313 
10 -1314 1315 
10 -1314 1316 
10 -1314 1317 
10 -1318 1319 
10 -1320 1321 
10 -1322 1323 
10 -1324 1325 
10 -1326 1327 
10 -1328 1329 
10 -1330 1331 
10 -1332 1333 
10 -1332 1334 
10 -1335 1336 
10 -1335 1337 
10 -1338 1339 
10 -1338 1340 
10 -1341 1342 
10 -1341 1343 
10 -1344 1345 
10 -1344 1346 
10 -1347 1348 
10 -1347 1349 
10 -1350 1351 
10 -1350 1352 
10 -1353 1354 
10 -1355 1356 
10 -1357 1358 
10 -1359 1360 
10 -1361 1362 
10 -1363 1364 
